; benchmark generated from python API
(set-info :status unknown)
(declare-fun cell_1_3 () Int)
(declare-fun cell_2_6 () Int)
(declare-fun cell_3_8 () Int)
(declare-fun cell_4_2 () Int)
(declare-fun cell_5_9 () Int)
(declare-fun cell_6_4 () Int)
(declare-fun cell_7_5 () Int)
(declare-fun cell_8_1 () Int)
(declare-fun cell_9_7 () Int)
(declare-fun cell_1_1 () Int)
(declare-fun cell_2_1 () Int)
(declare-fun cell_3_1 () Int)
(declare-fun cell_4_1 () Int)
(declare-fun cell_5_1 () Int)
(declare-fun cell_6_1 () Int)
(declare-fun cell_7_1 () Int)
(declare-fun cell_9_1 () Int)
(declare-fun cell_1_2 () Int)
(declare-fun cell_2_2 () Int)
(declare-fun cell_3_2 () Int)
(declare-fun cell_5_2 () Int)
(declare-fun cell_6_2 () Int)
(declare-fun cell_7_2 () Int)
(declare-fun cell_8_2 () Int)
(declare-fun cell_9_2 () Int)
(declare-fun cell_2_3 () Int)
(declare-fun cell_3_3 () Int)
(declare-fun cell_4_3 () Int)
(declare-fun cell_5_3 () Int)
(declare-fun cell_6_3 () Int)
(declare-fun cell_7_3 () Int)
(declare-fun cell_8_3 () Int)
(declare-fun cell_9_3 () Int)
(declare-fun cell_1_4 () Int)
(declare-fun cell_2_4 () Int)
(declare-fun cell_3_4 () Int)
(declare-fun cell_4_4 () Int)
(declare-fun cell_5_4 () Int)
(declare-fun cell_7_4 () Int)
(declare-fun cell_8_4 () Int)
(declare-fun cell_9_4 () Int)
(declare-fun cell_1_5 () Int)
(declare-fun cell_2_5 () Int)
(declare-fun cell_3_5 () Int)
(declare-fun cell_4_5 () Int)
(declare-fun cell_5_5 () Int)
(declare-fun cell_6_5 () Int)
(declare-fun cell_8_5 () Int)
(declare-fun cell_9_5 () Int)
(declare-fun cell_1_6 () Int)
(declare-fun cell_3_6 () Int)
(declare-fun cell_4_6 () Int)
(declare-fun cell_5_6 () Int)
(declare-fun cell_6_6 () Int)
(declare-fun cell_7_6 () Int)
(declare-fun cell_8_6 () Int)
(declare-fun cell_9_6 () Int)
(declare-fun cell_1_7 () Int)
(declare-fun cell_2_7 () Int)
(declare-fun cell_3_7 () Int)
(declare-fun cell_4_7 () Int)
(declare-fun cell_5_7 () Int)
(declare-fun cell_6_7 () Int)
(declare-fun cell_7_7 () Int)
(declare-fun cell_8_7 () Int)
(declare-fun cell_1_8 () Int)
(declare-fun cell_2_8 () Int)
(declare-fun cell_4_8 () Int)
(declare-fun cell_5_8 () Int)
(declare-fun cell_6_8 () Int)
(declare-fun cell_7_8 () Int)
(declare-fun cell_8_8 () Int)
(declare-fun cell_9_8 () Int)
(declare-fun cell_1_9 () Int)
(declare-fun cell_2_9 () Int)
(declare-fun cell_3_9 () Int)
(declare-fun cell_4_9 () Int)
(declare-fun cell_6_9 () Int)
(declare-fun cell_7_9 () Int)
(declare-fun cell_8_9 () Int)
(declare-fun cell_9_9 () Int)
(assert
 (= cell_1_3 1))
(assert
 (= cell_2_6 1))
(assert
 (= cell_3_8 1))
(assert
 (= cell_4_2 1))
(assert
 (= cell_5_9 1))
(assert
 (= cell_6_4 1))
(assert
 (= cell_7_5 1))
(assert
 (= cell_8_1 1))
(assert
 (= cell_9_7 1))
(assert
 (let (($x8540 (= cell_1_1 9)))
 (let (($x9109 (= cell_1_1 8)))
 (let (($x315 (= cell_1_1 7)))
 (let (($x7983 (= cell_1_1 6)))
 (let (($x928 (= cell_1_1 5)))
 (let (($x217 (= cell_1_1 4)))
 (let (($x3034 (= cell_1_1 3)))
 (let (($x3172 (= cell_1_1 2)))
 (let (($x257 (= cell_1_1 1)))
 (or $x257 $x3172 $x3034 $x217 $x928 $x7983 $x315 $x9109 $x8540)))))))))))
(assert
 (let (($x4412 (= cell_2_1 9)))
 (let (($x6818 (= cell_2_1 8)))
 (let (($x1483 (= cell_2_1 7)))
 (let (($x4454 (= cell_2_1 6)))
 (let (($x4441 (= cell_2_1 5)))
 (let (($x6010 (= cell_2_1 4)))
 (let (($x7624 (= cell_2_1 3)))
 (let (($x9933 (= cell_2_1 2)))
 (let (($x8276 (= cell_2_1 1)))
 (or $x8276 $x9933 $x7624 $x6010 $x4441 $x4454 $x1483 $x6818 $x4412)))))))))))
(assert
 (let (($x2131 (= cell_3_1 9)))
 (let (($x7837 (= cell_3_1 8)))
 (let (($x3608 (= cell_3_1 7)))
 (let (($x7384 (= cell_3_1 6)))
 (let (($x7010 (= cell_3_1 5)))
 (let (($x7037 (= cell_3_1 4)))
 (let (($x7302 (= cell_3_1 3)))
 (let (($x7787 (= cell_3_1 2)))
 (let (($x8064 (= cell_3_1 1)))
 (or $x8064 $x7787 $x7302 $x7037 $x7010 $x7384 $x3608 $x7837 $x2131)))))))))))
(assert
 (let (($x4284 (= cell_4_1 9)))
 (let (($x3208 (= cell_4_1 8)))
 (let (($x297 (= cell_4_1 7)))
 (let (($x4100 (= cell_4_1 6)))
 (let (($x8507 (= cell_4_1 5)))
 (let (($x8 (= cell_4_1 4)))
 (let (($x9097 (= cell_4_1 3)))
 (let (($x2642 (= cell_4_1 2)))
 (let (($x8900 (= cell_4_1 1)))
 (or $x8900 $x2642 $x9097 $x8 $x8507 $x4100 $x297 $x3208 $x4284)))))))))))
(assert
 (let (($x8351 (= cell_5_1 9)))
 (let (($x9204 (= cell_5_1 8)))
 (let (($x767 (= cell_5_1 7)))
 (let (($x1148 (= cell_5_1 6)))
 (let (($x4400 (= cell_5_1 5)))
 (let (($x5132 (= cell_5_1 4)))
 (let (($x3351 (= cell_5_1 3)))
 (let (($x4744 (= cell_5_1 2)))
 (let (($x1661 (= cell_5_1 1)))
 (or $x1661 $x4744 $x3351 $x5132 $x4400 $x1148 $x767 $x9204 $x8351)))))))))))
(assert
 (let (($x8418 (= cell_6_1 9)))
 (let (($x5629 (= cell_6_1 8)))
 (let (($x5502 (= cell_6_1 7)))
 (let (($x3627 (= cell_6_1 6)))
 (let (($x9552 (= cell_6_1 5)))
 (let (($x1103 (= cell_6_1 4)))
 (let (($x9474 (= cell_6_1 3)))
 (let (($x2728 (= cell_6_1 2)))
 (let (($x6148 (= cell_6_1 1)))
 (or $x6148 $x2728 $x9474 $x1103 $x9552 $x3627 $x5502 $x5629 $x8418)))))))))))
(assert
 (let (($x9458 (= cell_7_1 9)))
 (let (($x7810 (= cell_7_1 8)))
 (let (($x9213 (= cell_7_1 7)))
 (let (($x251 (= cell_7_1 6)))
 (let (($x2357 (= cell_7_1 5)))
 (let (($x4970 (= cell_7_1 4)))
 (let (($x8346 (= cell_7_1 3)))
 (let (($x6379 (= cell_7_1 2)))
 (let (($x7791 (= cell_7_1 1)))
 (or $x7791 $x6379 $x8346 $x4970 $x2357 $x251 $x9213 $x7810 $x9458)))))))))))
(assert
 (let (($x7271 (= cell_8_1 1)))
 (or $x7271 (= cell_8_1 2) (= cell_8_1 3) (= cell_8_1 4) (= cell_8_1 5) (= cell_8_1 6) (= cell_8_1 7) (= cell_8_1 8) (= cell_8_1 9))))
(assert
 (let (($x7807 (= cell_9_1 9)))
 (let (($x6048 (= cell_9_1 8)))
 (let (($x1352 (= cell_9_1 7)))
 (let (($x4269 (= cell_9_1 6)))
 (let (($x2547 (= cell_9_1 5)))
 (let (($x3919 (= cell_9_1 4)))
 (let (($x7604 (= cell_9_1 3)))
 (let (($x9490 (= cell_9_1 2)))
 (let (($x1389 (= cell_9_1 1)))
 (or $x1389 $x9490 $x7604 $x3919 $x2547 $x4269 $x1352 $x6048 $x7807)))))))))))
(assert
 (let (($x2531 (= cell_1_2 9)))
 (let (($x3949 (= cell_1_2 8)))
 (let (($x1437 (= cell_1_2 7)))
 (let (($x10118 (= cell_1_2 6)))
 (let (($x9904 (= cell_1_2 5)))
 (let (($x403 (= cell_1_2 4)))
 (let (($x9078 (= cell_1_2 3)))
 (let (($x5976 (= cell_1_2 2)))
 (let (($x1511 (= cell_1_2 1)))
 (or $x1511 $x5976 $x9078 $x403 $x9904 $x10118 $x1437 $x3949 $x2531)))))))))))
(assert
 (let (($x396 (= cell_2_2 9)))
 (let (($x3250 (= cell_2_2 8)))
 (let (($x3436 (= cell_2_2 7)))
 (let (($x7166 (= cell_2_2 6)))
 (let (($x8692 (= cell_2_2 5)))
 (let (($x806 (= cell_2_2 4)))
 (let (($x8194 (= cell_2_2 3)))
 (let (($x7410 (= cell_2_2 2)))
 (let (($x4270 (= cell_2_2 1)))
 (or $x4270 $x7410 $x8194 $x806 $x8692 $x7166 $x3436 $x3250 $x396)))))))))))
(assert
 (let (($x9366 (= cell_3_2 9)))
 (let (($x9385 (= cell_3_2 8)))
 (let (($x3687 (= cell_3_2 7)))
 (let (($x6510 (= cell_3_2 6)))
 (let (($x4558 (= cell_3_2 5)))
 (let (($x7217 (= cell_3_2 4)))
 (let (($x9195 (= cell_3_2 3)))
 (let (($x2751 (= cell_3_2 2)))
 (let (($x3092 (= cell_3_2 1)))
 (or $x3092 $x2751 $x9195 $x7217 $x4558 $x6510 $x3687 $x9385 $x9366)))))))))))
(assert
 (let (($x6876 (= cell_4_2 1)))
 (or $x6876 (= cell_4_2 2) (= cell_4_2 3) (= cell_4_2 4) (= cell_4_2 5) (= cell_4_2 6) (= cell_4_2 7) (= cell_4_2 8) (= cell_4_2 9))))
(assert
 (let (($x4277 (= cell_5_2 9)))
 (let (($x2033 (= cell_5_2 8)))
 (let (($x3805 (= cell_5_2 7)))
 (let (($x6291 (= cell_5_2 6)))
 (let (($x6570 (= cell_5_2 5)))
 (let (($x5928 (= cell_5_2 4)))
 (let (($x8405 (= cell_5_2 3)))
 (let (($x9172 (= cell_5_2 2)))
 (let (($x6473 (= cell_5_2 1)))
 (or $x6473 $x9172 $x8405 $x5928 $x6570 $x6291 $x3805 $x2033 $x4277)))))))))))
(assert
 (let (($x9086 (= cell_6_2 9)))
 (let (($x1656 (= cell_6_2 8)))
 (let (($x3864 (= cell_6_2 7)))
 (let (($x4857 (= cell_6_2 6)))
 (let (($x3025 (= cell_6_2 5)))
 (let (($x1517 (= cell_6_2 4)))
 (let (($x7912 (= cell_6_2 3)))
 (let (($x7748 (= cell_6_2 2)))
 (let (($x6211 (= cell_6_2 1)))
 (or $x6211 $x7748 $x7912 $x1517 $x3025 $x4857 $x3864 $x1656 $x9086)))))))))))
(assert
 (let (($x8897 (= cell_7_2 9)))
 (let (($x6924 (= cell_7_2 8)))
 (let (($x5653 (= cell_7_2 7)))
 (let (($x1377 (= cell_7_2 6)))
 (let (($x4166 (= cell_7_2 5)))
 (let (($x1300 (= cell_7_2 4)))
 (let (($x4923 (= cell_7_2 3)))
 (let (($x1047 (= cell_7_2 2)))
 (let (($x2661 (= cell_7_2 1)))
 (or $x2661 $x1047 $x4923 $x1300 $x4166 $x1377 $x5653 $x6924 $x8897)))))))))))
(assert
 (let (($x8278 (= cell_8_2 1)))
 (or $x8278 (= cell_8_2 2) (= cell_8_2 3) (= cell_8_2 4) (= cell_8_2 5) (= cell_8_2 6) (= cell_8_2 7) (= cell_8_2 8) (= cell_8_2 9))))
(assert
 (let (($x3445 (= cell_9_2 9)))
 (let (($x326 (= cell_9_2 8)))
 (let (($x6037 (= cell_9_2 7)))
 (let (($x2500 (= cell_9_2 6)))
 (let (($x5665 (= cell_9_2 5)))
 (let (($x3695 (= cell_9_2 4)))
 (let (($x1099 (= cell_9_2 3)))
 (let (($x2481 (= cell_9_2 2)))
 (let (($x9620 (= cell_9_2 1)))
 (or $x9620 $x2481 $x1099 $x3695 $x5665 $x2500 $x6037 $x326 $x3445)))))))))))
(assert
 (let (($x5181 (= cell_1_3 1)))
 (or $x5181 (= cell_1_3 2) (= cell_1_3 3) (= cell_1_3 4) (= cell_1_3 5) (= cell_1_3 6) (= cell_1_3 7) (= cell_1_3 8) (= cell_1_3 9))))
(assert
 (let (($x4238 (= cell_2_3 9)))
 (let (($x1174 (= cell_2_3 8)))
 (let (($x5071 (= cell_2_3 7)))
 (let (($x9587 (= cell_2_3 6)))
 (let (($x6129 (= cell_2_3 5)))
 (let (($x7 (= cell_2_3 4)))
 (let (($x3386 (= cell_2_3 3)))
 (let (($x4282 (= cell_2_3 2)))
 (let (($x7665 (= cell_2_3 1)))
 (or $x7665 $x4282 $x3386 $x7 $x6129 $x9587 $x5071 $x1174 $x4238)))))))))))
(assert
 (let (($x7568 (= cell_3_3 9)))
 (let (($x3643 (= cell_3_3 8)))
 (let (($x8440 (= cell_3_3 7)))
 (let (($x7595 (= cell_3_3 6)))
 (let (($x1489 (= cell_3_3 5)))
 (let (($x1314 (= cell_3_3 4)))
 (let (($x1541 (= cell_3_3 3)))
 (let (($x8787 (= cell_3_3 2)))
 (let (($x591 (= cell_3_3 1)))
 (or $x591 $x8787 $x1541 $x1314 $x1489 $x7595 $x8440 $x3643 $x7568)))))))))))
(assert
 (let (($x8136 (= cell_4_3 1)))
 (or $x8136 (= cell_4_3 2) (= cell_4_3 3) (= cell_4_3 4) (= cell_4_3 5) (= cell_4_3 6) (= cell_4_3 7) (= cell_4_3 8) (= cell_4_3 9))))
(assert
 (let (($x4976 (= cell_5_3 9)))
 (let (($x5423 (= cell_5_3 8)))
 (let (($x2998 (= cell_5_3 7)))
 (let (($x2075 (= cell_5_3 6)))
 (let (($x10151 (= cell_5_3 5)))
 (let (($x8524 (= cell_5_3 4)))
 (let (($x9978 (= cell_5_3 3)))
 (let (($x3412 (= cell_5_3 2)))
 (let (($x10221 (= cell_5_3 1)))
 (or $x10221 $x3412 $x9978 $x8524 $x10151 $x2075 $x2998 $x5423 $x4976)))))))))))
(assert
 (let (($x2069 (= cell_6_3 9)))
 (let (($x3204 (= cell_6_3 8)))
 (let (($x2353 (= cell_6_3 7)))
 (let (($x1955 (= cell_6_3 6)))
 (let (($x6152 (= cell_6_3 5)))
 (let (($x7859 (= cell_6_3 4)))
 (let (($x6856 (= cell_6_3 3)))
 (let (($x3630 (= cell_6_3 2)))
 (let (($x2044 (= cell_6_3 1)))
 (or $x2044 $x3630 $x6856 $x7859 $x6152 $x1955 $x2353 $x3204 $x2069)))))))))))
(assert
 (let (($x1935 (= cell_7_3 9)))
 (let (($x1043 (= cell_7_3 8)))
 (let (($x864 (= cell_7_3 7)))
 (let (($x3978 (= cell_7_3 6)))
 (let (($x9699 (= cell_7_3 5)))
 (let (($x7679 (= cell_7_3 4)))
 (let (($x1525 (= cell_7_3 3)))
 (let (($x3656 (= cell_7_3 2)))
 (let (($x4544 (= cell_7_3 1)))
 (or $x4544 $x3656 $x1525 $x7679 $x9699 $x3978 $x864 $x1043 $x1935)))))))))))
(assert
 (let (($x8333 (= cell_8_3 1)))
 (or $x8333 (= cell_8_3 2) (= cell_8_3 3) (= cell_8_3 4) (= cell_8_3 5) (= cell_8_3 6) (= cell_8_3 7) (= cell_8_3 8) (= cell_8_3 9))))
(assert
 (let (($x5948 (= cell_9_3 9)))
 (let (($x6530 (= cell_9_3 8)))
 (let (($x8777 (= cell_9_3 7)))
 (let (($x1727 (= cell_9_3 6)))
 (let (($x6963 (= cell_9_3 5)))
 (let (($x2314 (= cell_9_3 4)))
 (let (($x1609 (= cell_9_3 3)))
 (let (($x6359 (= cell_9_3 2)))
 (let (($x3934 (= cell_9_3 1)))
 (or $x3934 $x6359 $x1609 $x2314 $x6963 $x1727 $x8777 $x6530 $x5948)))))))))))
(assert
 (let (($x3810 (= cell_1_4 9)))
 (let (($x3027 (= cell_1_4 8)))
 (let (($x2550 (= cell_1_4 7)))
 (let (($x4427 (= cell_1_4 6)))
 (let (($x8604 (= cell_1_4 5)))
 (let (($x3143 (= cell_1_4 4)))
 (let (($x2569 (= cell_1_4 3)))
 (let (($x8887 (= cell_1_4 2)))
 (let (($x6567 (= cell_1_4 1)))
 (or $x6567 $x8887 $x2569 $x3143 $x8604 $x4427 $x2550 $x3027 $x3810)))))))))))
(assert
 (let (($x6404 (= cell_2_4 9)))
 (let (($x5394 (= cell_2_4 8)))
 (let (($x9100 (= cell_2_4 7)))
 (let (($x8506 (= cell_2_4 6)))
 (let (($x12 (= cell_2_4 5)))
 (let (($x778 (= cell_2_4 4)))
 (let (($x5628 (= cell_2_4 3)))
 (let (($x8245 (= cell_2_4 2)))
 (let (($x5674 (= cell_2_4 1)))
 (or $x5674 $x8245 $x5628 $x778 $x12 $x8506 $x9100 $x5394 $x6404)))))))))))
(assert
 (let (($x1857 (= cell_3_4 9)))
 (let (($x6231 (= cell_3_4 8)))
 (let (($x1794 (= cell_3_4 7)))
 (let (($x8842 (= cell_3_4 6)))
 (let (($x1522 (= cell_3_4 5)))
 (let (($x7337 (= cell_3_4 4)))
 (let (($x5361 (= cell_3_4 3)))
 (let (($x1844 (= cell_3_4 2)))
 (let (($x9222 (= cell_3_4 1)))
 (or $x9222 $x1844 $x5361 $x7337 $x1522 $x8842 $x1794 $x6231 $x1857)))))))))))
(assert
 (let (($x4049 (= cell_4_4 9)))
 (let (($x7881 (= cell_4_4 8)))
 (let (($x391 (= cell_4_4 7)))
 (let (($x9501 (= cell_4_4 6)))
 (let (($x5371 (= cell_4_4 5)))
 (let (($x6883 (= cell_4_4 4)))
 (let (($x7308 (= cell_4_4 3)))
 (let (($x9715 (= cell_4_4 2)))
 (let (($x7172 (= cell_4_4 1)))
 (or $x7172 $x9715 $x7308 $x6883 $x5371 $x9501 $x391 $x7881 $x4049)))))))))))
(assert
 (let (($x6533 (= cell_5_4 9)))
 (let (($x8283 (= cell_5_4 8)))
 (let (($x9993 (= cell_5_4 7)))
 (let (($x2975 (= cell_5_4 6)))
 (let (($x9083 (= cell_5_4 5)))
 (let (($x9362 (= cell_5_4 4)))
 (let (($x9953 (= cell_5_4 3)))
 (let (($x2442 (= cell_5_4 2)))
 (let (($x5042 (= cell_5_4 1)))
 (or $x5042 $x2442 $x9953 $x9362 $x9083 $x2975 $x9993 $x8283 $x6533)))))))))))
(assert
 (let (($x7515 (= cell_6_4 1)))
 (or $x7515 (= cell_6_4 2) (= cell_6_4 3) (= cell_6_4 4) (= cell_6_4 5) (= cell_6_4 6) (= cell_6_4 7) (= cell_6_4 8) (= cell_6_4 9))))
(assert
 (let (($x8814 (= cell_7_4 9)))
 (let (($x822 (= cell_7_4 8)))
 (let (($x1712 (= cell_7_4 7)))
 (let (($x2625 (= cell_7_4 6)))
 (let (($x8501 (= cell_7_4 5)))
 (let (($x5604 (= cell_7_4 4)))
 (let (($x5561 (= cell_7_4 3)))
 (let (($x6101 (= cell_7_4 2)))
 (let (($x1464 (= cell_7_4 1)))
 (or $x1464 $x6101 $x5561 $x5604 $x8501 $x2625 $x1712 $x822 $x8814)))))))))))
(assert
 (let (($x3652 (= cell_8_4 1)))
 (or $x3652 (= cell_8_4 2) (= cell_8_4 3) (= cell_8_4 4) (= cell_8_4 5) (= cell_8_4 6) (= cell_8_4 7) (= cell_8_4 8) (= cell_8_4 9))))
(assert
 (let (($x7151 (= cell_9_4 9)))
 (let (($x385 (= cell_9_4 8)))
 (let (($x9384 (= cell_9_4 7)))
 (let (($x3116 (= cell_9_4 6)))
 (let (($x190 (= cell_9_4 5)))
 (let (($x1097 (= cell_9_4 4)))
 (let (($x2847 (= cell_9_4 3)))
 (let (($x9355 (= cell_9_4 2)))
 (let (($x6688 (= cell_9_4 1)))
 (or $x6688 $x9355 $x2847 $x1097 $x190 $x3116 $x9384 $x385 $x7151)))))))))))
(assert
 (let (($x715 (= cell_1_5 9)))
 (let (($x4428 (= cell_1_5 8)))
 (let (($x8326 (= cell_1_5 7)))
 (let (($x447 (= cell_1_5 6)))
 (let (($x1375 (= cell_1_5 5)))
 (let (($x9518 (= cell_1_5 4)))
 (let (($x240 (= cell_1_5 3)))
 (let (($x2917 (= cell_1_5 2)))
 (let (($x9332 (= cell_1_5 1)))
 (or $x9332 $x2917 $x240 $x9518 $x1375 $x447 $x8326 $x4428 $x715)))))))))))
(assert
 (let (($x5847 (= cell_2_5 9)))
 (let (($x2175 (= cell_2_5 8)))
 (let (($x7914 (= cell_2_5 7)))
 (let (($x762 (= cell_2_5 6)))
 (let (($x3469 (= cell_2_5 5)))
 (let (($x1876 (= cell_2_5 4)))
 (let (($x2433 (= cell_2_5 3)))
 (let (($x550 (= cell_2_5 2)))
 (let (($x4724 (= cell_2_5 1)))
 (or $x4724 $x550 $x2433 $x1876 $x3469 $x762 $x7914 $x2175 $x5847)))))))))))
(assert
 (let (($x4816 (= cell_3_5 9)))
 (let (($x4919 (= cell_3_5 8)))
 (let (($x4747 (= cell_3_5 7)))
 (let (($x5490 (= cell_3_5 6)))
 (let (($x3176 (= cell_3_5 5)))
 (let (($x8642 (= cell_3_5 4)))
 (let (($x6655 (= cell_3_5 3)))
 (let (($x5905 (= cell_3_5 2)))
 (let (($x4347 (= cell_3_5 1)))
 (or $x4347 $x5905 $x6655 $x8642 $x3176 $x5490 $x4747 $x4919 $x4816)))))))))))
(assert
 (let (($x4431 (= cell_4_5 9)))
 (let (($x213 (= cell_4_5 8)))
 (let (($x2639 (= cell_4_5 7)))
 (let (($x526 (= cell_4_5 6)))
 (let (($x2510 (= cell_4_5 5)))
 (let (($x1819 (= cell_4_5 4)))
 (let (($x1574 (= cell_4_5 3)))
 (let (($x5893 (= cell_4_5 2)))
 (let (($x9357 (= cell_4_5 1)))
 (or $x9357 $x5893 $x1574 $x1819 $x2510 $x526 $x2639 $x213 $x4431)))))))))))
(assert
 (let (($x8016 (= cell_5_5 9)))
 (let (($x2926 (= cell_5_5 8)))
 (let (($x497 (= cell_5_5 7)))
 (let (($x7358 (= cell_5_5 6)))
 (let (($x3829 (= cell_5_5 5)))
 (let (($x644 (= cell_5_5 4)))
 (let (($x1741 (= cell_5_5 3)))
 (let (($x1345 (= cell_5_5 2)))
 (let (($x4077 (= cell_5_5 1)))
 (or $x4077 $x1345 $x1741 $x644 $x3829 $x7358 $x497 $x2926 $x8016)))))))))))
(assert
 (let (($x3560 (= cell_6_5 9)))
 (let (($x3078 (= cell_6_5 8)))
 (let (($x3336 (= cell_6_5 7)))
 (let (($x51 (= cell_6_5 6)))
 (let (($x4009 (= cell_6_5 5)))
 (let (($x3283 (= cell_6_5 4)))
 (let (($x3963 (= cell_6_5 3)))
 (let (($x2542 (= cell_6_5 2)))
 (let (($x4810 (= cell_6_5 1)))
 (or $x4810 $x2542 $x3963 $x3283 $x4009 $x51 $x3336 $x3078 $x3560)))))))))))
(assert
 (let (($x6519 (= cell_7_5 1)))
 (or $x6519 (= cell_7_5 2) (= cell_7_5 3) (= cell_7_5 4) (= cell_7_5 5) (= cell_7_5 6) (= cell_7_5 7) (= cell_7_5 8) (= cell_7_5 9))))
(assert
 (let (($x6789 (= cell_8_5 1)))
 (or $x6789 (= cell_8_5 2) (= cell_8_5 3) (= cell_8_5 4) (= cell_8_5 5) (= cell_8_5 6) (= cell_8_5 7) (= cell_8_5 8) (= cell_8_5 9))))
(assert
 (let (($x4213 (= cell_9_5 9)))
 (let (($x2232 (= cell_9_5 8)))
 (let (($x5133 (= cell_9_5 7)))
 (let (($x1722 (= cell_9_5 6)))
 (let (($x10227 (= cell_9_5 5)))
 (let (($x6698 (= cell_9_5 4)))
 (let (($x6088 (= cell_9_5 3)))
 (let (($x1673 (= cell_9_5 2)))
 (let (($x4147 (= cell_9_5 1)))
 (or $x4147 $x1673 $x6088 $x6698 $x10227 $x1722 $x5133 $x2232 $x4213)))))))))))
(assert
 (let (($x6799 (= cell_1_6 9)))
 (let (($x1162 (= cell_1_6 8)))
 (let (($x8950 (= cell_1_6 7)))
 (let (($x8971 (= cell_1_6 6)))
 (let (($x8655 (= cell_1_6 5)))
 (let (($x2681 (= cell_1_6 4)))
 (let (($x6138 (= cell_1_6 3)))
 (let (($x4525 (= cell_1_6 2)))
 (let (($x6524 (= cell_1_6 1)))
 (or $x6524 $x4525 $x6138 $x2681 $x8655 $x8971 $x8950 $x1162 $x6799)))))))))))
(assert
 (let (($x3746 (= cell_2_6 1)))
 (or $x3746 (= cell_2_6 2) (= cell_2_6 3) (= cell_2_6 4) (= cell_2_6 5) (= cell_2_6 6) (= cell_2_6 7) (= cell_2_6 8) (= cell_2_6 9))))
(assert
 (let (($x6903 (= cell_3_6 9)))
 (let (($x5760 (= cell_3_6 8)))
 (let (($x5507 (= cell_3_6 7)))
 (let (($x3213 (= cell_3_6 6)))
 (let (($x1765 (= cell_3_6 5)))
 (let (($x1596 (= cell_3_6 4)))
 (let (($x3642 (= cell_3_6 3)))
 (let (($x8781 (= cell_3_6 2)))
 (let (($x9982 (= cell_3_6 1)))
 (or $x9982 $x8781 $x3642 $x1596 $x1765 $x3213 $x5507 $x5760 $x6903)))))))))))
(assert
 (let (($x980 (= cell_4_6 9)))
 (let (($x2894 (= cell_4_6 8)))
 (let (($x4065 (= cell_4_6 7)))
 (let (($x2160 (= cell_4_6 6)))
 (let (($x8364 (= cell_4_6 5)))
 (let (($x8159 (= cell_4_6 4)))
 (let (($x4040 (= cell_4_6 3)))
 (let (($x2324 (= cell_4_6 2)))
 (let (($x4034 (= cell_4_6 1)))
 (or $x4034 $x2324 $x4040 $x8159 $x8364 $x2160 $x4065 $x2894 $x980)))))))))))
(assert
 (let (($x944 (= cell_5_6 9)))
 (let (($x7492 (= cell_5_6 8)))
 (let (($x2749 (= cell_5_6 7)))
 (let (($x8379 (= cell_5_6 6)))
 (let (($x8638 (= cell_5_6 5)))
 (let (($x10050 (= cell_5_6 4)))
 (let (($x9439 (= cell_5_6 3)))
 (let (($x6184 (= cell_5_6 2)))
 (let (($x1452 (= cell_5_6 1)))
 (or $x1452 $x6184 $x9439 $x10050 $x8638 $x8379 $x2749 $x7492 $x944)))))))))))
(assert
 (let (($x1772 (= cell_6_6 1)))
 (or $x1772 (= cell_6_6 2) (= cell_6_6 3) (= cell_6_6 4) (= cell_6_6 5) (= cell_6_6 6) (= cell_6_6 7) (= cell_6_6 8) (= cell_6_6 9))))
(assert
 (let (($x4083 (= cell_7_6 1)))
 (or $x4083 (= cell_7_6 2) (= cell_7_6 3) (= cell_7_6 4) (= cell_7_6 5) (= cell_7_6 6) (= cell_7_6 7) (= cell_7_6 8) (= cell_7_6 9))))
(assert
 (let (($x8813 (= cell_8_6 1)))
 (or $x8813 (= cell_8_6 2) (= cell_8_6 3) (= cell_8_6 4) (= cell_8_6 5) (= cell_8_6 6) (= cell_8_6 7) (= cell_8_6 8) (= cell_8_6 9))))
(assert
 (let (($x5136 (= cell_9_6 9)))
 (let (($x7960 (= cell_9_6 8)))
 (let (($x9944 (= cell_9_6 7)))
 (let (($x2780 (= cell_9_6 6)))
 (let (($x6700 (= cell_9_6 5)))
 (let (($x6665 (= cell_9_6 4)))
 (let (($x9644 (= cell_9_6 3)))
 (let (($x10184 (= cell_9_6 2)))
 (let (($x5032 (= cell_9_6 1)))
 (or $x5032 $x10184 $x9644 $x6665 $x6700 $x2780 $x9944 $x7960 $x5136)))))))))))
(assert
 (let (($x5497 (= cell_1_7 9)))
 (let (($x9201 (= cell_1_7 8)))
 (let (($x3900 (= cell_1_7 7)))
 (let (($x10243 (= cell_1_7 6)))
 (let (($x4890 (= cell_1_7 5)))
 (let (($x1233 (= cell_1_7 4)))
 (let (($x9134 (= cell_1_7 3)))
 (let (($x6449 (= cell_1_7 2)))
 (let (($x9152 (= cell_1_7 1)))
 (or $x9152 $x6449 $x9134 $x1233 $x4890 $x10243 $x3900 $x9201 $x5497)))))))))))
(assert
 (let (($x8672 (= cell_2_7 9)))
 (let (($x4603 (= cell_2_7 8)))
 (let (($x6041 (= cell_2_7 7)))
 (let (($x1925 (= cell_2_7 6)))
 (let (($x9972 (= cell_2_7 5)))
 (let (($x4643 (= cell_2_7 4)))
 (let (($x5155 (= cell_2_7 3)))
 (let (($x1676 (= cell_2_7 2)))
 (let (($x1368 (= cell_2_7 1)))
 (or $x1368 $x1676 $x5155 $x4643 $x9972 $x1925 $x6041 $x4603 $x8672)))))))))))
(assert
 (let (($x1139 (= cell_3_7 9)))
 (let (($x9103 (= cell_3_7 8)))
 (let (($x7610 (= cell_3_7 7)))
 (let (($x1164 (= cell_3_7 6)))
 (let (($x2593 (= cell_3_7 5)))
 (let (($x6126 (= cell_3_7 4)))
 (let (($x9919 (= cell_3_7 3)))
 (let (($x8475 (= cell_3_7 2)))
 (let (($x9968 (= cell_3_7 1)))
 (or $x9968 $x8475 $x9919 $x6126 $x2593 $x1164 $x7610 $x9103 $x1139)))))))))))
(assert
 (let (($x10123 (= cell_4_7 9)))
 (let (($x3295 (= cell_4_7 8)))
 (let (($x4458 (= cell_4_7 7)))
 (let (($x1780 (= cell_4_7 6)))
 (let (($x6151 (= cell_4_7 5)))
 (let (($x1293 (= cell_4_7 4)))
 (let (($x5143 (= cell_4_7 3)))
 (let (($x10045 (= cell_4_7 2)))
 (let (($x8505 (= cell_4_7 1)))
 (or $x8505 $x10045 $x5143 $x1293 $x6151 $x1780 $x4458 $x3295 $x10123)))))))))))
(assert
 (let (($x6710 (= cell_5_7 9)))
 (let (($x6554 (= cell_5_7 8)))
 (let (($x2296 (= cell_5_7 7)))
 (let (($x4579 (= cell_5_7 6)))
 (let (($x5048 (= cell_5_7 5)))
 (let (($x6387 (= cell_5_7 4)))
 (let (($x9952 (= cell_5_7 3)))
 (let (($x8852 (= cell_5_7 2)))
 (let (($x2837 (= cell_5_7 1)))
 (or $x2837 $x8852 $x9952 $x6387 $x5048 $x4579 $x2296 $x6554 $x6710)))))))))))
(assert
 (let (($x499 (= cell_6_7 9)))
 (let (($x8565 (= cell_6_7 8)))
 (let (($x8193 (= cell_6_7 7)))
 (let (($x5818 (= cell_6_7 6)))
 (let (($x475 (= cell_6_7 5)))
 (let (($x4200 (= cell_6_7 4)))
 (let (($x2638 (= cell_6_7 3)))
 (let (($x3300 (= cell_6_7 2)))
 (let (($x2246 (= cell_6_7 1)))
 (or $x2246 $x3300 $x2638 $x4200 $x475 $x5818 $x8193 $x8565 $x499)))))))))))
(assert
 (let (($x1796 (= cell_7_7 9)))
 (let (($x9724 (= cell_7_7 8)))
 (let (($x5643 (= cell_7_7 7)))
 (let (($x4812 (= cell_7_7 6)))
 (let (($x8415 (= cell_7_7 5)))
 (let (($x9837 (= cell_7_7 4)))
 (let (($x958 (= cell_7_7 3)))
 (let (($x851 (= cell_7_7 2)))
 (let (($x7721 (= cell_7_7 1)))
 (or $x7721 $x851 $x958 $x9837 $x8415 $x4812 $x5643 $x9724 $x1796)))))))))))
(assert
 (let (($x6407 (= cell_8_7 9)))
 (let (($x921 (= cell_8_7 8)))
 (let (($x7845 (= cell_8_7 7)))
 (let (($x5799 (= cell_8_7 6)))
 (let (($x4813 (= cell_8_7 5)))
 (let (($x3629 (= cell_8_7 4)))
 (let (($x1913 (= cell_8_7 3)))
 (let (($x6080 (= cell_8_7 2)))
 (let (($x4064 (= cell_8_7 1)))
 (or $x4064 $x6080 $x1913 $x3629 $x4813 $x5799 $x7845 $x921 $x6407)))))))))))
(assert
 (let (($x8874 (= cell_9_7 1)))
 (or $x8874 (= cell_9_7 2) (= cell_9_7 3) (= cell_9_7 4) (= cell_9_7 5) (= cell_9_7 6) (= cell_9_7 7) (= cell_9_7 8) (= cell_9_7 9))))
(assert
 (let (($x1373 (= cell_1_8 9)))
 (let (($x7553 (= cell_1_8 8)))
 (let (($x5675 (= cell_1_8 7)))
 (let (($x2272 (= cell_1_8 6)))
 (let (($x6075 (= cell_1_8 5)))
 (let (($x8042 (= cell_1_8 4)))
 (let (($x8395 (= cell_1_8 3)))
 (let (($x8771 (= cell_1_8 2)))
 (let (($x108 (= cell_1_8 1)))
 (or $x108 $x8771 $x8395 $x8042 $x6075 $x2272 $x5675 $x7553 $x1373)))))))))))
(assert
 (let (($x6203 (= cell_2_8 9)))
 (let (($x720 (= cell_2_8 8)))
 (let (($x9667 (= cell_2_8 7)))
 (let (($x7829 (= cell_2_8 6)))
 (let (($x3477 (= cell_2_8 5)))
 (let (($x9629 (= cell_2_8 4)))
 (let (($x11 (= cell_2_8 3)))
 (let (($x9224 (= cell_2_8 2)))
 (let (($x6514 (= cell_2_8 1)))
 (or $x6514 $x9224 $x11 $x9629 $x3477 $x7829 $x9667 $x720 $x6203)))))))))))
(assert
 (let (($x6654 (= cell_3_8 1)))
 (or $x6654 (= cell_3_8 2) (= cell_3_8 3) (= cell_3_8 4) (= cell_3_8 5) (= cell_3_8 6) (= cell_3_8 7) (= cell_3_8 8) (= cell_3_8 9))))
(assert
 (let (($x8208 (= cell_4_8 9)))
 (let (($x6879 (= cell_4_8 8)))
 (let (($x9012 (= cell_4_8 7)))
 (let (($x2536 (= cell_4_8 6)))
 (let (($x10102 (= cell_4_8 5)))
 (let (($x4107 (= cell_4_8 4)))
 (let (($x7751 (= cell_4_8 3)))
 (let (($x6302 (= cell_4_8 2)))
 (let (($x777 (= cell_4_8 1)))
 (or $x777 $x6302 $x7751 $x4107 $x10102 $x2536 $x9012 $x6879 $x8208)))))))))))
(assert
 (let (($x7109 (= cell_5_8 9)))
 (let (($x1853 (= cell_5_8 8)))
 (let (($x5678 (= cell_5_8 7)))
 (let (($x8068 (= cell_5_8 6)))
 (let (($x3431 (= cell_5_8 5)))
 (let (($x7379 (= cell_5_8 4)))
 (let (($x7072 (= cell_5_8 3)))
 (let (($x3136 (= cell_5_8 2)))
 (let (($x2008 (= cell_5_8 1)))
 (or $x2008 $x3136 $x7072 $x7379 $x3431 $x8068 $x5678 $x1853 $x7109)))))))))))
(assert
 (let (($x9965 (= cell_6_8 1)))
 (or $x9965 (= cell_6_8 2) (= cell_6_8 3) (= cell_6_8 4) (= cell_6_8 5) (= cell_6_8 6) (= cell_6_8 7) (= cell_6_8 8) (= cell_6_8 9))))
(assert
 (let (($x46 (= cell_7_8 9)))
 (let (($x4382 (= cell_7_8 8)))
 (let (($x2298 (= cell_7_8 7)))
 (let (($x3694 (= cell_7_8 6)))
 (let (($x3310 (= cell_7_8 5)))
 (let (($x1836 (= cell_7_8 4)))
 (let (($x780 (= cell_7_8 3)))
 (let (($x833 (= cell_7_8 2)))
 (let (($x2093 (= cell_7_8 1)))
 (or $x2093 $x833 $x780 $x1836 $x3310 $x3694 $x2298 $x4382 $x46)))))))))))
(assert
 (let (($x4245 (= cell_8_8 9)))
 (let (($x5766 (= cell_8_8 8)))
 (let (($x4811 (= cell_8_8 7)))
 (let (($x3189 (= cell_8_8 6)))
 (let (($x787 (= cell_8_8 5)))
 (let (($x7296 (= cell_8_8 4)))
 (let (($x9220 (= cell_8_8 3)))
 (let (($x10052 (= cell_8_8 2)))
 (let (($x3347 (= cell_8_8 1)))
 (or $x3347 $x10052 $x9220 $x7296 $x787 $x3189 $x4811 $x5766 $x4245)))))))))))
(assert
 (let (($x6166 (= cell_9_8 1)))
 (or $x6166 (= cell_9_8 2) (= cell_9_8 3) (= cell_9_8 4) (= cell_9_8 5) (= cell_9_8 6) (= cell_9_8 7) (= cell_9_8 8) (= cell_9_8 9))))
(assert
 (let (($x1227 (= cell_1_9 9)))
 (let (($x9391 (= cell_1_9 8)))
 (let (($x5570 (= cell_1_9 7)))
 (let (($x9482 (= cell_1_9 6)))
 (let (($x6727 (= cell_1_9 5)))
 (let (($x8590 (= cell_1_9 4)))
 (let (($x8444 (= cell_1_9 3)))
 (let (($x3234 (= cell_1_9 2)))
 (let (($x7352 (= cell_1_9 1)))
 (or $x7352 $x3234 $x8444 $x8590 $x6727 $x9482 $x5570 $x9391 $x1227)))))))))))
(assert
 (let (($x5220 (= cell_2_9 9)))
 (let (($x2351 (= cell_2_9 8)))
 (let (($x2138 (= cell_2_9 7)))
 (let (($x472 (= cell_2_9 6)))
 (let (($x7819 (= cell_2_9 5)))
 (let (($x9444 (= cell_2_9 4)))
 (let (($x770 (= cell_2_9 3)))
 (let (($x5679 (= cell_2_9 2)))
 (let (($x2489 (= cell_2_9 1)))
 (or $x2489 $x5679 $x770 $x9444 $x7819 $x472 $x2138 $x2351 $x5220)))))))))))
(assert
 (let (($x5396 (= cell_3_9 9)))
 (let (($x2575 (= cell_3_9 8)))
 (let (($x9634 (= cell_3_9 7)))
 (let (($x8235 (= cell_3_9 6)))
 (let (($x5075 (= cell_3_9 5)))
 (let (($x5215 (= cell_3_9 4)))
 (let (($x7641 (= cell_3_9 3)))
 (let (($x1364 (= cell_3_9 2)))
 (let (($x9936 (= cell_3_9 1)))
 (or $x9936 $x1364 $x7641 $x5215 $x5075 $x8235 $x9634 $x2575 $x5396)))))))))))
(assert
 (let (($x7851 (= cell_4_9 9)))
 (let (($x4136 (= cell_4_9 8)))
 (let (($x7222 (= cell_4_9 7)))
 (let (($x5787 (= cell_4_9 6)))
 (let (($x8457 (= cell_4_9 5)))
 (let (($x23 (= cell_4_9 4)))
 (let (($x1434 (= cell_4_9 3)))
 (let (($x501 (= cell_4_9 2)))
 (let (($x600 (= cell_4_9 1)))
 (or $x600 $x501 $x1434 $x23 $x8457 $x5787 $x7222 $x4136 $x7851)))))))))))
(assert
 (let (($x1700 (= cell_5_9 1)))
 (or $x1700 (= cell_5_9 2) (= cell_5_9 3) (= cell_5_9 4) (= cell_5_9 5) (= cell_5_9 6) (= cell_5_9 7) (= cell_5_9 8) (= cell_5_9 9))))
(assert
 (let (($x10082 (= cell_6_9 1)))
 (or $x10082 (= cell_6_9 2) (= cell_6_9 3) (= cell_6_9 4) (= cell_6_9 5) (= cell_6_9 6) (= cell_6_9 7) (= cell_6_9 8) (= cell_6_9 9))))
(assert
 (let (($x5841 (= cell_7_9 9)))
 (let (($x1446 (= cell_7_9 8)))
 (let (($x2893 (= cell_7_9 7)))
 (let (($x2657 (= cell_7_9 6)))
 (let (($x5054 (= cell_7_9 5)))
 (let (($x5981 (= cell_7_9 4)))
 (let (($x7554 (= cell_7_9 3)))
 (let (($x1449 (= cell_7_9 2)))
 (let (($x1155 (= cell_7_9 1)))
 (or $x1155 $x1449 $x7554 $x5981 $x5054 $x2657 $x2893 $x1446 $x5841)))))))))))
(assert
 (let (($x7286 (= cell_8_9 9)))
 (let (($x5693 (= cell_8_9 8)))
 (let (($x6278 (= cell_8_9 7)))
 (let (($x4372 (= cell_8_9 6)))
 (let (($x7695 (= cell_8_9 5)))
 (let (($x9271 (= cell_8_9 4)))
 (let (($x72 (= cell_8_9 3)))
 (let (($x5006 (= cell_8_9 2)))
 (let (($x4159 (= cell_8_9 1)))
 (or $x4159 $x5006 $x72 $x9271 $x7695 $x4372 $x6278 $x5693 $x7286)))))))))))
(assert
 (let (($x5985 (= cell_9_9 1)))
 (or $x5985 (= cell_9_9 2) (= cell_9_9 3) (= cell_9_9 4) (= cell_9_9 5) (= cell_9_9 6) (= cell_9_9 7) (= cell_9_9 8) (= cell_9_9 9))))
(assert
 (and (distinct cell_1_1 cell_1_2 cell_1_3 cell_1_4 cell_1_5 cell_1_6 cell_1_7 cell_1_8 cell_1_9) true))
(assert
 (and (distinct cell_2_1 cell_2_2 cell_2_3 cell_2_4 cell_2_5 cell_2_6 cell_2_7 cell_2_8 cell_2_9) true))
(assert
 (and (distinct cell_3_1 cell_3_2 cell_3_3 cell_3_4 cell_3_5 cell_3_6 cell_3_7 cell_3_8 cell_3_9) true))
(assert
 (and (distinct cell_4_1 cell_4_2 cell_4_3 cell_4_4 cell_4_5 cell_4_6 cell_4_7 cell_4_8 cell_4_9) true))
(assert
 (and (distinct cell_5_1 cell_5_2 cell_5_3 cell_5_4 cell_5_5 cell_5_6 cell_5_7 cell_5_8 cell_5_9) true))
(assert
 (and (distinct cell_6_1 cell_6_2 cell_6_3 cell_6_4 cell_6_5 cell_6_6 cell_6_7 cell_6_8 cell_6_9) true))
(assert
 (and (distinct cell_7_1 cell_7_2 cell_7_3 cell_7_4 cell_7_5 cell_7_6 cell_7_7 cell_7_8 cell_7_9) true))
(assert
 (and (distinct cell_8_1 cell_8_2 cell_8_3 cell_8_4 cell_8_5 cell_8_6 cell_8_7 cell_8_8 cell_8_9) true))
(assert
 (and (distinct cell_9_1 cell_9_2 cell_9_3 cell_9_4 cell_9_5 cell_9_6 cell_9_7 cell_9_8 cell_9_9) true))
(assert
 (and (distinct cell_1_1 cell_2_1 cell_3_1 cell_4_1 cell_5_1 cell_6_1 cell_7_1 cell_8_1 cell_9_1) true))
(assert
 (and (distinct cell_1_2 cell_2_2 cell_3_2 cell_4_2 cell_5_2 cell_6_2 cell_7_2 cell_8_2 cell_9_2) true))
(assert
 (and (distinct cell_1_3 cell_2_3 cell_3_3 cell_4_3 cell_5_3 cell_6_3 cell_7_3 cell_8_3 cell_9_3) true))
(assert
 (and (distinct cell_1_4 cell_2_4 cell_3_4 cell_4_4 cell_5_4 cell_6_4 cell_7_4 cell_8_4 cell_9_4) true))
(assert
 (and (distinct cell_1_5 cell_2_5 cell_3_5 cell_4_5 cell_5_5 cell_6_5 cell_7_5 cell_8_5 cell_9_5) true))
(assert
 (and (distinct cell_1_6 cell_2_6 cell_3_6 cell_4_6 cell_5_6 cell_6_6 cell_7_6 cell_8_6 cell_9_6) true))
(assert
 (and (distinct cell_1_7 cell_2_7 cell_3_7 cell_4_7 cell_5_7 cell_6_7 cell_7_7 cell_8_7 cell_9_7) true))
(assert
 (and (distinct cell_1_8 cell_2_8 cell_3_8 cell_4_8 cell_5_8 cell_6_8 cell_7_8 cell_8_8 cell_9_8) true))
(assert
 (and (distinct cell_1_9 cell_2_9 cell_3_9 cell_4_9 cell_5_9 cell_6_9 cell_7_9 cell_8_9 cell_9_9) true))
(assert
 (and (distinct cell_1_1 cell_1_2 cell_1_3 cell_2_1 cell_2_2 cell_2_3 cell_3_1 cell_3_2 cell_3_3) true))
(assert
 (and (distinct cell_1_4 cell_1_5 cell_1_6 cell_2_4 cell_2_5 cell_2_6 cell_3_4 cell_3_5 cell_3_6) true))
(assert
 (and (distinct cell_1_7 cell_1_8 cell_1_9 cell_2_7 cell_2_8 cell_2_9 cell_3_7 cell_3_8 cell_3_9) true))
(assert
 (and (distinct cell_4_1 cell_4_2 cell_4_3 cell_5_1 cell_5_2 cell_5_3 cell_6_1 cell_6_2 cell_6_3) true))
(assert
 (and (distinct cell_4_4 cell_4_5 cell_4_6 cell_5_4 cell_5_5 cell_5_6 cell_6_4 cell_6_5 cell_6_6) true))
(assert
 (and (distinct cell_4_7 cell_4_8 cell_4_9 cell_5_7 cell_5_8 cell_5_9 cell_6_7 cell_6_8 cell_6_9) true))
(assert
 (and (distinct cell_7_1 cell_7_2 cell_7_3 cell_8_1 cell_8_2 cell_8_3 cell_9_1 cell_9_2 cell_9_3) true))
(assert
 (and (distinct cell_7_4 cell_7_5 cell_7_6 cell_8_4 cell_8_5 cell_8_6 cell_9_4 cell_9_5 cell_9_6) true))
(assert
 (and (distinct cell_7_7 cell_7_8 cell_7_9 cell_8_7 cell_8_8 cell_8_9 cell_9_7 cell_9_8 cell_9_9) true))
(assert
 (let (($x2419 (and (distinct cell_5_9 cell_6_8 cell_7_7 cell_8_6) true)))
 (let (($x5064 (and (distinct cell_2_9 cell_3_8 cell_4_7 cell_5_6 cell_6_5 cell_7_4 cell_8_3 cell_9_2) true)))
 (let (($x5017 (and (distinct cell_1_8 cell_2_7 cell_3_6 cell_4_5 cell_5_4 cell_6_3 cell_7_2 cell_8_1) true)))
 (let (($x7432 (and (distinct cell_1_5 cell_2_4 cell_3_3 cell_4_2) true)))
 (let (($x6926 (and (distinct cell_5_1 cell_6_2 cell_7_3 cell_8_4) true)))
 (let (($x9665 (and (distinct cell_2_1 cell_3_2 cell_4_3 cell_5_4 cell_6_5 cell_7_6 cell_8_7 cell_9_8) true)))
 (let (($x2095 (and (distinct cell_1_2 cell_2_3 cell_3_4 cell_4_5 cell_5_6 cell_6_7 cell_7_8 cell_8_9) true)))
 (let (($x1744 (and (distinct cell_1_5 cell_2_6 cell_3_7 cell_4_8) true)))
 (and $x1744 $x2095 $x9665 $x6926 $x7432 $x5017 $x5064 $x2419))))))))))
(assert
 (= cell_1_8 2))
(check-sat)
